(set-logic HORN)

(declare-datatypes ((node 0)) (((node  (next Int) (prev Int) (data Int)))))
(declare-datatypes ((HeapObject 0)) (((O_Int  (getInt Int)) (O_UInt  (getUInt Int)) (O_Addr  (getAddr Int)) (O_node  (getnode node)) (defObj ))))
(declare-datatypes ((Heap 0)) (((HeapCtor  (HeapSize Int) (HeapContents (Array Int HeapObject))))))

(declare-fun |inv_main35| ( Heap Int Int Int Int Int Int Int Int ) Bool)
(declare-fun |inv_main4| ( Heap Int Int ) Bool)
(declare-fun |inv_main62| ( Heap Int Int Int Int Int Int Int Int ) Bool)
(declare-fun |inv_main82| ( Heap Int Int Int Int Int Int ) Bool)
(declare-fun |inv_main76| ( Heap Int Int Int Int Int ) Bool)
(declare-fun |inv_main75| ( Heap Int Int Int Int Int Int Int Int Int ) Bool)
(declare-fun |inv_main73| ( Heap Int Int Int Int Int Int Int Int Int ) Bool)
(declare-fun |inv_main101| ( Heap Int Int Int Int Int Int Int Int ) Bool)
(declare-fun |inv_main77| ( Heap Int Int Int Int Int ) Bool)
(declare-fun |inv_main12| ( Heap Int Int Int Int Int Int ) Bool)
(declare-fun |inv_main69| ( Heap Int Int Int Int Int Int Int ) Bool)
(declare-fun |inv_main63| ( Heap Int Int Int Int Int Int Int Int ) Bool)
(declare-fun |inv_main38| ( Heap Int Int Int Int Int Int Int ) Bool)
(declare-fun |inv_main68| ( Heap Int Int Int Int Int Int Int ) Bool)
(declare-fun |inv_main44| ( Heap Int Int Int Int Int Int ) Bool)
(declare-fun |CHC_COMP_FALSE| ( ) Bool)
(declare-fun |inv_main104| ( Heap Int Int Int Int Int Int ) Bool)
(declare-fun |inv_main67| ( Heap Int Int Int Int Int Int Int ) Bool)
(declare-fun |inv_main56| ( Heap Int Int Int Int Int Int Int Int ) Bool)
(declare-fun |inv_main36| ( Heap Int Int Int Int Int Int Int Int ) Bool)
(declare-fun |inv_main19| ( Heap Int Int Int Int Int Int ) Bool)
(declare-fun |inv_main18| ( Heap Int Int Int Int Int Int ) Bool)
(declare-fun |inv_main85| ( Heap Int Int Int Int Int Int ) Bool)
(declare-fun |inv_main97| ( Heap Int Int Int Int Int Int Int ) Bool)
(declare-fun |inv_main23| ( Heap Int Int Int Int Int Int ) Bool)
(declare-fun |inv_main74| ( Heap Int Int Int Int Int Int Int Int Int ) Bool)
(declare-fun |inv_main22| ( Heap Int Int Int Int Int Int ) Bool)
(declare-fun |inv_main29| ( Heap Int Int Int Int Int Int Int Int ) Bool)
(declare-fun |inv_main41| ( Heap Int Int Int Int Int Int Int ) Bool)
(declare-fun |inv_main72| ( Heap Int Int Int Int Int Int Int Int Int ) Bool)

(assert
  (forall ( (A Heap) (v_1 Int) (v_2 Int) ) 
    (=>
      (and
        (and (= A (HeapCtor 0 ((as const (Array Int HeapObject)) defObj)))
     (= 2 v_1)
     (= 1 v_2))
      )
      (inv_main4 A v_1 v_2)
    )
  )
)
(assert
  (forall ( (A Int) (B Int) (C Int) (D Int) (E Int) (F Int) (G Int) (H node) (I Heap) (J Int) (K Int) (L Int) (M Int) (N Int) (O Int) (P Int) (Q Heap) ) 
    (=>
      (and
        (inv_main22 Q P O N M L K)
        (let ((a!1 (HeapCtor (+ 1 (HeapSize Q))
                     (store (HeapContents Q) (+ 1 (HeapSize Q)) (O_node H)))))
  (and (= J (+ 1 (HeapSize Q)))
       (= G P)
       (= F O)
       (= E N)
       (= D M)
       (= C L)
       (= B K)
       (= A M)
       (= I a!1)
       (<= 2 N)
       (not (= 0 J))))
      )
      (inv_main29 I G F E D C B A J)
    )
  )
)
(assert
  (forall ( (A Int) (B Int) (C Int) (D Int) (E Int) (F Int) (G Heap) ) 
    (=>
      (and
        (inv_main82 G F E D C B A)
        (let ((a!1 (ite (and (not (<= B 0)) (>= (HeapSize G) B))
                (select (HeapContents G) B)
                defObj)))
(let ((a!2 (not (= E (data (getnode a!1))))))
  (and ((_ is O_node) a!1) a!2)))
      )
      (inv_main104 G F E D C B A)
    )
  )
)
(assert
  (forall ( (A Int) (B Int) (C Int) (D Int) (E Heap) (F Int) (G Int) (H Int) (I Int) (J Int) (K Int) (L Int) (M Int) (N Int) (O Int) (P Heap) ) 
    (=>
      (and
        (inv_main85 P O N M L K J)
        (let ((a!1 (ite (and (not (<= K 0)) (>= (HeapSize P) K))
                (select (HeapContents P) K)
                defObj)))
  (and (= G (next (getnode a!1)))
       (= G F)
       (not (= I H))
       (= I J)
       (= F M)
       (= D N)
       (= C L)
       (= B K)
       (= A (+ 1 I))
       (= E P)
       ((_ is O_node) a!1)
       (= H O)))
      )
      (inv_main104 E H D F C G A)
    )
  )
)
(assert
  (forall ( (A Int) (B Int) (C Int) (D Int) (E Int) (F Int) (G Heap) ) 
    (=>
      (and
        (inv_main76 G F E D C B)
        (let ((a!1 (ite (and (not (<= B 0)) (>= (HeapSize G) B))
                (select (HeapContents G) B)
                defObj)))
(let ((a!2 (not (= C (data (getnode a!1))))))
  (and ((_ is O_node) a!1) a!2)))
      )
      (inv_main104 G F E D C B A)
    )
  )
)
(assert
  (forall ( (A Heap) (B Int) (C Int) (D Int) (E Int) (F Int) (G Int) (H Int) (I Int) (J Heap) ) 
    (=>
      (and
        (inv_main29 J I H G F E D C B)
        (let ((a!1 (ite (and (not (<= B 0)) (>= (HeapSize J) B))
                (select (HeapContents J) B)
                defObj)))
(let ((a!2 (O_node (node 0 (prev (getnode a!1)) (data (getnode a!1))))))
(let ((a!3 (ite (and (not (<= B 0)) (>= (HeapSize J) B))
                (HeapCtor (HeapSize J) (store (HeapContents J) B a!2))
                J)))
  (and ((_ is O_node) a!1) (= A a!3)))))
      )
      (inv_main35 A I H G F E D C B)
    )
  )
)
(assert
  (forall ( (A Int) (B Int) (C Int) (D Int) (E Int) (F Int) (G Heap) ) 
    (=>
      (and
        (inv_main22 G F E D C B A)
        (not (<= 2 D))
      )
      (inv_main23 G F E D C B A)
    )
  )
)
(assert
  (forall ( (A Int) (B Int) (C Int) (D Int) (E Int) (F Int) (G Heap) (H Int) (I Int) (J Int) (K Int) (L Int) (M Int) (N Int) (O Int) (P Heap) ) 
    (=>
      (and
        (inv_main85 P O N M L K J)
        (let ((a!1 (ite (and (not (<= K 0)) (>= (HeapSize P) K))
                (select (HeapContents P) K)
                defObj)))
  (and (= I (next (getnode a!1)))
       (not (= I H))
       (= F O)
       (= E N)
       (= D L)
       (= C K)
       (= B J)
       (= A (+ 1 B))
       (= G P)
       ((_ is O_node) a!1)
       (= H M)))
      )
      (inv_main82 G F E H D I A)
    )
  )
)
(assert
  (forall ( (A Int) (B Int) (C Int) (D Int) (E Int) (F Int) (G Heap) (H Int) (I Int) (J Int) (K Int) (L Int) (M Heap) (v_13 Int) ) 
    (=>
      (and
        (inv_main77 M L K J I H)
        (let ((a!1 (ite (and (not (<= H 0)) (>= (HeapSize M) H))
                (select (HeapContents M) H)
                defObj)))
  (and (= D J)
       (= F L)
       (= C I)
       (= B H)
       (= A (next (getnode a!1)))
       (= G M)
       ((_ is O_node) a!1)
       (= E K)
       (= 1 v_13)))
      )
      (inv_main82 G F E D C A v_13)
    )
  )
)
(assert
  (forall ( (A Heap) (B Int) (C Int) (D Int) (E Int) (F Int) (G Int) (H Int) (I Int) (J Heap) ) 
    (=>
      (and
        (inv_main35 J I H G F E D C B)
        (let ((a!1 (ite (and (not (<= B 0)) (>= (HeapSize J) B))
                (select (HeapContents J) B)
                defObj)))
(let ((a!2 (O_node (node (next (getnode a!1)) 0 (data (getnode a!1))))))
(let ((a!3 (ite (and (not (<= B 0)) (>= (HeapSize J) B))
                (HeapCtor (HeapSize J) (store (HeapContents J) B a!2))
                J)))
  (and ((_ is O_node) a!1) (= A a!3)))))
      )
      (inv_main36 A I H G F E D C B)
    )
  )
)
(assert
  (forall ( (A Int) (B Int) (C Int) (D Int) (E Int) (F Heap) ) 
    (=>
      (and
        (inv_main76 F E D C B A)
        (let ((a!1 (ite (and (not (<= A 0)) (>= (HeapSize F) A))
                (select (HeapContents F) A)
                defObj)))
  (and ((_ is O_node) a!1) (= B (data (getnode a!1)))))
      )
      (inv_main77 F E D C B A)
    )
  )
)
(assert
  (forall ( (A Heap) (B Int) (C Int) (D Int) (E Int) (F Int) (G Int) (H Heap) ) 
    (=>
      (and
        (inv_main18 H G F E D C B)
        (let ((a!1 (ite (and (not (<= B 0)) (>= (HeapSize H) B))
                (select (HeapContents H) B)
                defObj)))
(let ((a!2 (O_node (node (next (getnode a!1)) 0 (data (getnode a!1))))))
(let ((a!3 (ite (and (not (<= B 0)) (>= (HeapSize H) B))
                (HeapCtor (HeapSize H) (store (HeapContents H) B a!2))
                H)))
  (and ((_ is O_node) a!1) (= A a!3)))))
      )
      (inv_main19 A G F E D C B)
    )
  )
)
(assert
  (forall ( (A Heap) (B Int) (C Int) (D Int) (E Int) (F Int) (G Int) (H Int) (I Int) (J Heap) ) 
    (=>
      (and
        (inv_main62 J I H G F E D C B)
        (let ((a!1 (ite (and (not (<= B 0)) (>= (HeapSize J) B))
                (select (HeapContents J) B)
                defObj)))
(let ((a!2 (O_node (node (next (getnode a!1)) 0 (data (getnode a!1))))))
(let ((a!3 (ite (and (not (<= B 0)) (>= (HeapSize J) B))
                (HeapCtor (HeapSize J) (store (HeapContents J) B a!2))
                J)))
  (and ((_ is O_node) a!1) (= A a!3)))))
      )
      (inv_main63 A I H G F E D C B)
    )
  )
)
(assert
  (forall ( (A Int) (B Int) (C Int) (D Int) (E Int) (F Int) (G Int) (H Heap) (I Int) (J Int) (K Int) (L Int) (M Int) (N Int) (O Int) (P Int) (Q Int) (R Heap) ) 
    (=>
      (and
        (inv_main63 R Q P O N M L K J)
        (let ((a!1 (ite (and (not (<= J 0)) (>= (HeapSize R) J))
                (select (HeapContents R) J)
                defObj)))
(let ((a!2 (O_node (node (next (getnode a!1)) (prev (getnode a!1)) K))))
(let ((a!3 (ite (and (not (<= J 0)) (>= (HeapSize R) J))
                (HeapCtor (HeapSize R) (store (HeapContents R) J a!2))
                R)))
  (and (= A J)
       (= I O)
       (= G Q)
       (= F P)
       (= E N)
       (= D M)
       (= C L)
       (= B K)
       (= H a!3)
       ((_ is O_node) a!1)
       (not (= 0 I))))))
      )
      (inv_main67 H G F I E D C A)
    )
  )
)
(assert
  (forall ( (A Heap) (B Int) (C Int) (D Int) (E Int) (F Int) (G Int) (H Heap) ) 
    (=>
      (and
        (inv_main12 H G F E D C B)
        (let ((a!1 (ite (and (not (<= B 0)) (>= (HeapSize H) B))
                (select (HeapContents H) B)
                defObj)))
(let ((a!2 (O_node (node 0 (prev (getnode a!1)) (data (getnode a!1))))))
(let ((a!3 (ite (and (not (<= B 0)) (>= (HeapSize H) B))
                (HeapCtor (HeapSize H) (store (HeapContents H) B a!2))
                H)))
  (and ((_ is O_node) a!1) (= A a!3)))))
      )
      (inv_main18 A G F E D C B)
    )
  )
)
(assert
  (forall ( (A Int) (B Int) (C Int) (D Int) (E Int) (F node) (G Heap) (H Int) (I Int) (J Int) (K Heap) ) 
    (=>
      (and
        (inv_main4 K J I)
        (let ((a!1 (HeapCtor (+ 1 (HeapSize K))
                     (store (HeapContents K) (+ 1 (HeapSize K)) (O_node F)))))
  (and (= C J)
       (= B I)
       (= H (+ 1 (HeapSize K)))
       (= E J)
       (= D I)
       (= A I)
       (= G a!1)
       (not (= 0 H))))
      )
      (inv_main12 G E D C B A H)
    )
  )
)
(assert
  (forall ( (A Int) (B Int) (C Int) (D Int) (E Int) (F Int) (G Heap) (H Int) (I Int) (J Int) (K Int) (L Int) (M Int) (N Int) (O Int) (P Int) (Q Heap) ) 
    (=>
      (and
        (inv_main97 Q P O N M L K J)
        (let ((a!1 (ite (and (not (<= J 0)) (>= (HeapSize Q) J))
                (select (HeapContents Q) J)
                defObj)))
  (and (not (= I H))
       (= H J)
       (= F P)
       (= E O)
       (= D N)
       (= C M)
       (= B L)
       (= A K)
       (= G Q)
       ((_ is O_node) a!1)
       (= I (next (getnode a!1)))))
      )
      (inv_main101 G F E D C B A H I)
    )
  )
)
(assert
  (forall ( (A Int) (B Int) (C Int) (D Int) (E Int) (F Int) (G Int) (H Heap) (I Int) (J Int) (K Int) (L Int) (M Int) (N Int) (O Int) (P Int) (Q Int) (R Heap) (S Int) (T Int) (U Int) (V Int) (W Int) (X Int) (Y Int) (Z Int) (A1 Int) (B1 Int) (C1 Heap) ) 
    (=>
      (and
        (inv_main101 C1 B1 A1 Z Y X W V U)
        (let ((a!1 (ite (and (not (<= U 0)) (>= (HeapSize C1) U))
                (select (HeapContents C1) U)
                defObj))
      (a!2 (ite (and (not (<= J 0)) (>= (HeapSize R) J))
                (HeapCtor (HeapSize R) (store (HeapContents R) J defObj))
                R)))
  (and (= J U)
       (= I (next (getnode a!1)))
       (= G Q)
       (= F P)
       (= E O)
       (= D N)
       (= C M)
       (= B L)
       (= A J)
       (= L W)
       (= T I)
       (not (= T S))
       (= S K)
       (= Q B1)
       (= P A1)
       (= O Z)
       (= N Y)
       (= M X)
       (= H a!2)
       (= R C1)
       ((_ is O_node) a!1)
       (= K V)))
      )
      (inv_main101 H G F E D C B S T)
    )
  )
)
(assert
  (forall ( (A Int) (B Int) (C Int) (D Int) (E Int) (F Int) (G Int) (H Int) (I Heap) (J Int) (K Int) (L Int) (M Int) (N Int) (O Int) (P Int) (Q Heap) ) 
    (=>
      (and
        (inv_main41 Q P O N M L K J)
        (let ((a!1 (ite (and (not (<= L 0)) (>= (HeapSize Q) L))
                (select (HeapContents Q) L)
                defObj)))
(let ((a!2 (O_node (node (next (getnode a!1)) J (data (getnode a!1))))))
(let ((a!3 (ite (and (not (<= L 0)) (>= (HeapSize Q) L))
                (HeapCtor (HeapSize Q) (store (HeapContents Q) L a!2))
                Q)))
  (and (= G O)
       (= F N)
       (= E M)
       (= D L)
       (= C K)
       (= B J)
       (= A (+ (- 1) F))
       (= I a!3)
       ((_ is O_node) a!1)
       (= H P)))))
      )
      (inv_main22 I H G A E B C)
    )
  )
)
(assert
  (forall ( (A Int) (B Int) (C Int) (D Int) (E Int) (F Int) (G Int) (H Heap) (I Int) (J Int) (K Int) (L Int) (M Int) (N Int) (O Int) (P Int) (Q Heap) ) 
    (=>
      (and
        (inv_main38 Q P O N M L K J)
        (let ((a!1 (ite (and (not (<= J 0)) (>= (HeapSize Q) J))
                (select (HeapContents Q) J)
                defObj)))
(let ((a!2 (O_node (node L (prev (getnode a!1)) (data (getnode a!1))))))
(let ((a!3 (ite (and (not (<= J 0)) (>= (HeapSize Q) J))
                (HeapCtor (HeapSize Q) (store (HeapContents Q) J a!2))
                Q)))
  (and (= I L)
       (= G P)
       (= F O)
       (= E N)
       (= D M)
       (= C K)
       (= B J)
       (= A (+ (- 1) E))
       (= H a!3)
       ((_ is O_node) a!1)
       (= I 0)))))
      )
      (inv_main22 H G F A D B C)
    )
  )
)
(assert
  (forall ( (A Int) (B Int) (C Int) (D Int) (E Int) (F Int) (G Heap) (H Int) (I Int) (J Int) (K Int) (L Int) (M Int) (N Heap) (v_14 Int) ) 
    (=>
      (and
        (inv_main19 N M L K J I H)
        (let ((a!1 (ite (and (not (<= H 0)) (>= (HeapSize N) H))
                (select (HeapContents N) H)
                defObj)))
(let ((a!2 (O_node (node (next (getnode a!1)) (prev (getnode a!1)) I))))
(let ((a!3 (ite (and (not (<= H 0)) (>= (HeapSize N) H))
                (HeapCtor (HeapSize N) (store (HeapContents N) H a!2))
                N)))
  (and (= E L)
       (= D K)
       (= C J)
       (= B I)
       (= A H)
       (= G a!3)
       ((_ is O_node) a!1)
       (= F M)
       (= v_14 A)))))
      )
      (inv_main22 G F E D C A v_14)
    )
  )
)
(assert
  (forall ( (A Heap) (B Int) (C Int) (D Int) (E Int) (F Int) (G Int) (H Int) (I Int) (J Heap) ) 
    (=>
      (and
        (inv_main56 J I H G F E D C B)
        (let ((a!1 (ite (and (not (<= B 0)) (>= (HeapSize J) B))
                (select (HeapContents J) B)
                defObj)))
(let ((a!2 (O_node (node 0 (prev (getnode a!1)) (data (getnode a!1))))))
(let ((a!3 (ite (and (not (<= B 0)) (>= (HeapSize J) B))
                (HeapCtor (HeapSize J) (store (HeapContents J) B a!2))
                J)))
  (and ((_ is O_node) a!1) (= A a!3)))))
      )
      (inv_main62 A I H G F E D C B)
    )
  )
)
(assert
  (forall ( (A Heap) (B Int) (C Int) (D Int) (E Int) (F Int) (G Int) (H Int) (I Int) (J Int) (K Heap) ) 
    (=>
      (and
        (inv_main72 K J I H G F E D C B)
        (let ((a!1 (ite (and (not (<= D 0)) (>= (HeapSize K) D))
                (select (HeapContents K) D)
                defObj)))
(let ((a!2 (O_node (node B (prev (getnode a!1)) (data (getnode a!1))))))
(let ((a!3 (ite (and (not (<= D 0)) (>= (HeapSize K) D))
                (HeapCtor (HeapSize K) (store (HeapContents K) D a!2))
                K)))
  (and ((_ is O_node) a!1) (= A a!3)))))
      )
      (inv_main73 A J I H G F E D C B)
    )
  )
)
(assert
  (forall ( (A Int) (B Int) (C Int) (D Int) (E Int) (F Int) (G Int) (H Heap) (I Int) (J Int) (K Int) (L Int) (M Int) (N Int) (O Int) (P Int) (Q Int) (R Heap) (v_18 Int) ) 
    (=>
      (and
        (inv_main63 R Q P O N M L K J)
        (let ((a!1 (ite (and (not (<= J 0)) (>= (HeapSize R) J))
                (select (HeapContents R) J)
                defObj)))
(let ((a!2 (O_node (node (next (getnode a!1)) (prev (getnode a!1)) K))))
(let ((a!3 (ite (and (not (<= J 0)) (>= (HeapSize R) J))
                (HeapCtor (HeapSize R) (store (HeapContents R) J a!2))
                R)))
  (and (= A J)
       (= I O)
       (= G Q)
       (= F P)
       (= E N)
       (= D M)
       (= C L)
       (= B K)
       (= H a!3)
       ((_ is O_node) a!1)
       (= 0 I)
       (= v_18 A)))))
      )
      (inv_main68 H G F A E D C v_18)
    )
  )
)
(assert
  (forall ( (A Int) (B Int) (C Int) (D Int) (E Int) (F Int) (G Heap) ) 
    (=>
      (and
        (inv_main82 G F E D C B A)
        (let ((a!1 (ite (and (not (<= B 0)) (>= (HeapSize G) B))
                (select (HeapContents G) B)
                defObj)))
  (and ((_ is O_node) a!1) (= E (data (getnode a!1)))))
      )
      (inv_main85 G F E D C B A)
    )
  )
)
(assert
  (forall ( (A Heap) (B Int) (C Int) (D Int) (E Int) (F Int) (G Int) (H Int) (I Heap) ) 
    (=>
      (and
        (inv_main68 I H G F E D C B)
        (let ((a!1 (ite (and (not (<= B 0)) (>= (HeapSize I) B))
                (select (HeapContents I) B)
                defObj)))
(let ((a!2 (O_node (node B (prev (getnode a!1)) (data (getnode a!1))))))
(let ((a!3 (ite (and (not (<= B 0)) (>= (HeapSize I) B))
                (HeapCtor (HeapSize I) (store (HeapContents I) B a!2))
                I)))
  (and ((_ is O_node) a!1) (= A a!3)))))
      )
      (inv_main69 A H G F E D C B)
    )
  )
)
(assert
  (forall ( (A Heap) (B Int) (C Int) (D Int) (E Int) (F Int) (G Int) (H Heap) ) 
    (=>
      (and
        (inv_main23 H G F E D C B)
        (let ((a!1 (ite (and (not (<= B 0)) (>= (HeapSize H) B))
                (select (HeapContents H) B)
                defObj)))
(let ((a!2 (O_node (node C (prev (getnode a!1)) (data (getnode a!1))))))
(let ((a!3 (ite (and (not (<= B 0)) (>= (HeapSize H) B))
                (HeapCtor (HeapSize H) (store (HeapContents H) B a!2))
                H)))
  (and ((_ is O_node) a!1) (= A a!3)))))
      )
      (inv_main44 A G F E D C B)
    )
  )
)
(assert
  (forall ( (A Int) (B Int) (C Int) (D Int) (E Int) (F Int) (G Int) (H Int) (I Heap) (J Int) (K Int) (L Int) (M Int) (N Int) (O Int) (P Int) (Q Heap) (v_17 Int) ) 
    (=>
      (and
        (inv_main67 Q P O N M L K J)
        (let ((a!1 (ite (and (not (<= N 0)) (>= (HeapSize Q) N))
                (select (HeapContents Q) N)
                defObj)))
  (and (= G O)
       (= F N)
       (= E M)
       (= D L)
       (= C K)
       (= B J)
       (= A (prev (getnode a!1)))
       (= I Q)
       ((_ is O_node) a!1)
       (= H P)
       (= v_17 B)))
      )
      (inv_main72 I H G B E D C v_17 A F)
    )
  )
)
(assert
  (forall ( (A Int) (B Int) (C Int) (D Int) (E Heap) (F Int) (G Int) (H Int) (I Int) (J Int) (K Int) (L Int) (M Int) (N Int) (O Int) (P Heap) (v_16 Int) ) 
    (=>
      (and
        (inv_main85 P O N M L K J)
        (let ((a!1 (ite (and (not (<= K 0)) (>= (HeapSize P) K))
                (select (HeapContents P) K)
                defObj)))
  (and (= H G)
       (= H J)
       (= G O)
       (= I M)
       (= F (next (getnode a!1)))
       (= F I)
       (= D N)
       (= C L)
       (= B K)
       (= A (+ 1 H))
       (= E P)
       ((_ is O_node) a!1)
       (not (= 0 I))
       (= v_16 I)))
      )
      (inv_main97 E G D I C F A v_16)
    )
  )
)
(assert
  (forall ( (A Int) (B Int) (C Int) (D Int) (E Int) (F Int) (G Int) (H Int) (I Int) (J Int) (K Int) (L Int) (M Int) (N node) (O Heap) (P Heap) (Q Int) (R Int) (S Int) (T Int) (U Int) (V Int) (W Int) (X Heap) ) 
    (=>
      (and
        (inv_main44 X W V U T S R)
        (let ((a!1 (ite (and (not (<= S 0)) (>= (HeapSize X) S))
                (select (HeapContents X) S)
                defObj))
      (a!4 (HeapCtor (+ 1 (HeapSize O))
                     (store (HeapContents O) (+ 1 (HeapSize O)) (O_node N)))))
(let ((a!2 (O_node (node (next (getnode a!1)) R (data (getnode a!1))))))
(let ((a!3 (ite (and (not (<= S 0)) (>= (HeapSize X) S))
                (HeapCtor (HeapSize X) (store (HeapContents X) S a!2))
                X)))
  (and (= C U)
       (= F 3)
       (= E 5)
       (= D 5)
       (= B T)
       (= A R)
       (= G 5)
       (= Q (+ 1 (HeapSize O)))
       (= M L)
       (= L W)
       (= K J)
       (= J V)
       (= I H)
       (= H S)
       (= O a!3)
       (= P a!4)
       ((_ is O_node) a!1)
       (not (= 0 Q))))))
      )
      (inv_main56 P M K I G F E D Q)
    )
  )
)
(assert
  (forall ( (A Int) (B Int) (C Int) (D Int) (E Int) (F Int) (G Int) (H Int) (I Heap) (J Int) (K Int) (L Int) (M Int) (N Int) (O Int) (P Int) (Q Int) (R Heap) ) 
    (=>
      (and
        (inv_main36 R Q P O N M L K J)
        (let ((a!1 (ite (and (not (<= J 0)) (>= (HeapSize R) J))
                (select (HeapContents R) J)
                defObj)))
(let ((a!2 (O_node (node (next (getnode a!1)) (prev (getnode a!1)) K))))
(let ((a!3 (ite (and (not (<= J 0)) (>= (HeapSize R) J))
                (HeapCtor (HeapSize R) (store (HeapContents R) J a!2))
                R)))
  (and (= H Q)
       (= G P)
       (= F O)
       (= E N)
       (= D M)
       (= C L)
       (= B K)
       (= I a!3)
       ((_ is O_node) a!1)
       (= A J)))))
      )
      (inv_main38 I H G F E D C A)
    )
  )
)
(assert
  (forall ( (A Int) (B Int) (C Int) (D Int) (E Int) (F Int) (G Heap) (H Int) (I Int) (J Int) (K Int) (L Int) (M Int) (N Int) (O Heap) (v_15 Int) ) 
    (=>
      (and
        (inv_main69 O N M L K J I H)
        (let ((a!1 (ite (and (not (<= H 0)) (>= (HeapSize O) H))
                (select (HeapContents O) H)
                defObj)))
(let ((a!2 (O_node (node (next (getnode a!1)) H (data (getnode a!1))))))
(let ((a!3 (ite (and (not (<= H 0)) (>= (HeapSize O) H))
                (HeapCtor (HeapSize O) (store (HeapContents O) H a!2))
                O)))
  (and (= E M)
       (= D L)
       (= C K)
       (= B J)
       (= A I)
       (= G a!3)
       ((_ is O_node) a!1)
       (= F N)
       (= v_15 D)))))
      )
      (inv_main76 G F E D C v_15)
    )
  )
)
(assert
  (forall ( (A Int) (B Int) (C Int) (D Int) (E Int) (F Int) (G Heap) (H Int) (I Int) (J Int) (K Int) (L Int) (M Int) (N Int) (O Int) (P Int) (Q Heap) (v_17 Int) ) 
    (=>
      (and
        (inv_main75 Q P O N M L K J I H)
        (let ((a!1 (ite (and (not (<= J 0)) (>= (HeapSize Q) J))
                (select (HeapContents Q) J)
                defObj)))
(let ((a!2 (O_node (node (next (getnode a!1)) I (data (getnode a!1))))))
(let ((a!3 (ite (and (not (<= J 0)) (>= (HeapSize Q) J))
                (HeapCtor (HeapSize Q) (store (HeapContents Q) J a!2))
                Q)))
  (and (= E O)
       (= D N)
       (= C M)
       (= B L)
       (= A K)
       (= G a!3)
       ((_ is O_node) a!1)
       (= F P)
       (= v_17 D)))))
      )
      (inv_main76 G F E D C v_17)
    )
  )
)
(assert
  (forall ( (A Heap) (B Int) (C Int) (D Int) (E Int) (F Int) (G Int) (H Int) (I Int) (J Int) (K Heap) ) 
    (=>
      (and
        (inv_main74 K J I H G F E D C B)
        (let ((a!1 (ite (and (not (<= C 0)) (>= (HeapSize K) C))
                (select (HeapContents K) C)
                defObj)))
(let ((a!2 (O_node (node D (prev (getnode a!1)) (data (getnode a!1))))))
(let ((a!3 (ite (and (not (<= C 0)) (>= (HeapSize K) C))
                (HeapCtor (HeapSize K) (store (HeapContents K) C a!2))
                K)))
  (and ((_ is O_node) a!1) (= A a!3)))))
      )
      (inv_main75 A J I H G F E D C B)
    )
  )
)
(assert
  (forall ( (A Heap) (B Int) (C Int) (D Int) (E Int) (F Int) (G Int) (H Int) (I Int) (J Int) (K Heap) ) 
    (=>
      (and
        (inv_main73 K J I H G F E D C B)
        (let ((a!1 (ite (and (not (<= B 0)) (>= (HeapSize K) B))
                (select (HeapContents K) B)
                defObj)))
(let ((a!2 (O_node (node (next (getnode a!1)) D (data (getnode a!1))))))
(let ((a!3 (ite (and (not (<= B 0)) (>= (HeapSize K) B))
                (HeapCtor (HeapSize K) (store (HeapContents K) B a!2))
                K)))
  (and ((_ is O_node) a!1) (= A a!3)))))
      )
      (inv_main74 A J I H G F E D C B)
    )
  )
)
(assert
  (forall ( (A Int) (B Int) (C Int) (D Int) (E Int) (F Int) (G Heap) (H Int) (I Int) (J Int) (K Int) (L Int) (M Int) (N Int) (O Int) (P Heap) ) 
    (=>
      (and
        (inv_main38 P O N M L K J I)
        (let ((a!1 (ite (and (not (<= I 0)) (>= (HeapSize P) I))
                (select (HeapContents P) I)
                defObj)))
(let ((a!2 (O_node (node K (prev (getnode a!1)) (data (getnode a!1))))))
(let ((a!3 (ite (and (not (<= I 0)) (>= (HeapSize P) I))
                (HeapCtor (HeapSize P) (store (HeapContents P) I a!2))
                P)))
  (and (= H K)
       (= F O)
       (= E N)
       (= D M)
       (= C L)
       (= B J)
       (= A I)
       (= G a!3)
       ((_ is O_node) a!1)
       (not (= H 0))))))
      )
      (inv_main41 G F E D C H B A)
    )
  )
)
(assert
  (forall ( (A Int) (B Int) (C Int) (D Int) (E Int) (F Int) (G Heap) ) 
    (=>
      (and
        (inv_main12 G F E D C B A)
        (let ((a!1 (ite (and (not (<= A 0)) (>= (HeapSize G) A))
                (select (HeapContents G) A)
                defObj)))
  (not ((_ is O_node) a!1)))
      )
      CHC_COMP_FALSE
    )
  )
)
(assert
  (forall ( (A Int) (B Int) (C Int) (D Int) (E Int) (F Int) (G Heap) ) 
    (=>
      (and
        (inv_main18 G F E D C B A)
        (let ((a!1 (ite (and (not (<= A 0)) (>= (HeapSize G) A))
                (select (HeapContents G) A)
                defObj)))
  (not ((_ is O_node) a!1)))
      )
      CHC_COMP_FALSE
    )
  )
)
(assert
  (forall ( (A Int) (B Int) (C Int) (D Int) (E Int) (F Int) (G Heap) ) 
    (=>
      (and
        (inv_main19 G F E D C B A)
        (let ((a!1 (ite (and (not (<= A 0)) (>= (HeapSize G) A))
                (select (HeapContents G) A)
                defObj)))
  (not ((_ is O_node) a!1)))
      )
      CHC_COMP_FALSE
    )
  )
)
(assert
  (forall ( (A Int) (B Int) (C Int) (D Int) (E Int) (F Int) (G Int) (H Int) (I Heap) ) 
    (=>
      (and
        (inv_main29 I H G F E D C B A)
        (let ((a!1 (ite (and (not (<= A 0)) (>= (HeapSize I) A))
                (select (HeapContents I) A)
                defObj)))
  (not ((_ is O_node) a!1)))
      )
      CHC_COMP_FALSE
    )
  )
)
(assert
  (forall ( (A Int) (B Int) (C Int) (D Int) (E Int) (F Int) (G Int) (H Int) (I Heap) ) 
    (=>
      (and
        (inv_main35 I H G F E D C B A)
        (let ((a!1 (ite (and (not (<= A 0)) (>= (HeapSize I) A))
                (select (HeapContents I) A)
                defObj)))
  (not ((_ is O_node) a!1)))
      )
      CHC_COMP_FALSE
    )
  )
)
(assert
  (forall ( (A Int) (B Int) (C Int) (D Int) (E Int) (F Int) (G Int) (H Int) (I Heap) ) 
    (=>
      (and
        (inv_main36 I H G F E D C B A)
        (let ((a!1 (ite (and (not (<= A 0)) (>= (HeapSize I) A))
                (select (HeapContents I) A)
                defObj)))
  (not ((_ is O_node) a!1)))
      )
      CHC_COMP_FALSE
    )
  )
)
(assert
  (forall ( (A Int) (B Int) (C Int) (D Int) (E Int) (F Int) (G Int) (H Heap) ) 
    (=>
      (and
        (inv_main38 H G F E D C B A)
        (let ((a!1 (ite (and (not (<= A 0)) (>= (HeapSize H) A))
                (select (HeapContents H) A)
                defObj)))
  (not ((_ is O_node) a!1)))
      )
      CHC_COMP_FALSE
    )
  )
)
(assert
  (forall ( (A Int) (B Int) (C Int) (D Int) (E Int) (F Int) (G Int) (H Heap) ) 
    (=>
      (and
        (inv_main41 H G F E D C B A)
        (let ((a!1 (ite (and (not (<= C 0)) (>= (HeapSize H) C))
                (select (HeapContents H) C)
                defObj)))
  (not ((_ is O_node) a!1)))
      )
      CHC_COMP_FALSE
    )
  )
)
(assert
  (forall ( (A Int) (B Int) (C Int) (D Int) (E Int) (F Int) (G Heap) ) 
    (=>
      (and
        (inv_main23 G F E D C B A)
        (let ((a!1 (ite (and (not (<= A 0)) (>= (HeapSize G) A))
                (select (HeapContents G) A)
                defObj)))
  (not ((_ is O_node) a!1)))
      )
      CHC_COMP_FALSE
    )
  )
)
(assert
  (forall ( (A Int) (B Int) (C Int) (D Int) (E Int) (F Int) (G Heap) ) 
    (=>
      (and
        (inv_main44 G F E D C B A)
        (let ((a!1 (ite (and (not (<= B 0)) (>= (HeapSize G) B))
                (select (HeapContents G) B)
                defObj)))
  (not ((_ is O_node) a!1)))
      )
      CHC_COMP_FALSE
    )
  )
)
(assert
  (forall ( (A Int) (B Int) (C Int) (D Int) (E Int) (F Int) (G Int) (H Int) (I Heap) ) 
    (=>
      (and
        (inv_main56 I H G F E D C B A)
        (let ((a!1 (ite (and (not (<= A 0)) (>= (HeapSize I) A))
                (select (HeapContents I) A)
                defObj)))
  (not ((_ is O_node) a!1)))
      )
      CHC_COMP_FALSE
    )
  )
)
(assert
  (forall ( (A Int) (B Int) (C Int) (D Int) (E Int) (F Int) (G Int) (H Int) (I Heap) ) 
    (=>
      (and
        (inv_main62 I H G F E D C B A)
        (let ((a!1 (ite (and (not (<= A 0)) (>= (HeapSize I) A))
                (select (HeapContents I) A)
                defObj)))
  (not ((_ is O_node) a!1)))
      )
      CHC_COMP_FALSE
    )
  )
)
(assert
  (forall ( (A Int) (B Int) (C Int) (D Int) (E Int) (F Int) (G Int) (H Int) (I Heap) ) 
    (=>
      (and
        (inv_main63 I H G F E D C B A)
        (let ((a!1 (ite (and (not (<= A 0)) (>= (HeapSize I) A))
                (select (HeapContents I) A)
                defObj)))
  (not ((_ is O_node) a!1)))
      )
      CHC_COMP_FALSE
    )
  )
)
(assert
  (forall ( (A Int) (B Int) (C Int) (D Int) (E Int) (F Int) (G Int) (H Heap) ) 
    (=>
      (and
        (inv_main68 H G F E D C B A)
        (let ((a!1 (ite (and (not (<= A 0)) (>= (HeapSize H) A))
                (select (HeapContents H) A)
                defObj)))
  (not ((_ is O_node) a!1)))
      )
      CHC_COMP_FALSE
    )
  )
)
(assert
  (forall ( (A Int) (B Int) (C Int) (D Int) (E Int) (F Int) (G Int) (H Heap) ) 
    (=>
      (and
        (inv_main69 H G F E D C B A)
        (let ((a!1 (ite (and (not (<= A 0)) (>= (HeapSize H) A))
                (select (HeapContents H) A)
                defObj)))
  (not ((_ is O_node) a!1)))
      )
      CHC_COMP_FALSE
    )
  )
)
(assert
  (forall ( (A Int) (B Int) (C Int) (D Int) (E Int) (F Int) (G Int) (H Heap) ) 
    (=>
      (and
        (inv_main67 H G F E D C B A)
        (let ((a!1 (ite (and (not (<= E 0)) (>= (HeapSize H) E))
                (select (HeapContents H) E)
                defObj)))
  (not ((_ is O_node) a!1)))
      )
      CHC_COMP_FALSE
    )
  )
)
(assert
  (forall ( (A Int) (B Int) (C Int) (D Int) (E Int) (F Int) (G Int) (H Int) (I Int) (J Heap) ) 
    (=>
      (and
        (inv_main72 J I H G F E D C B A)
        (let ((a!1 (ite (and (not (<= C 0)) (>= (HeapSize J) C))
                (select (HeapContents J) C)
                defObj)))
  (not ((_ is O_node) a!1)))
      )
      CHC_COMP_FALSE
    )
  )
)
(assert
  (forall ( (A Int) (B Int) (C Int) (D Int) (E Int) (F Int) (G Int) (H Int) (I Int) (J Heap) ) 
    (=>
      (and
        (inv_main73 J I H G F E D C B A)
        (let ((a!1 (ite (and (not (<= A 0)) (>= (HeapSize J) A))
                (select (HeapContents J) A)
                defObj)))
  (not ((_ is O_node) a!1)))
      )
      CHC_COMP_FALSE
    )
  )
)
(assert
  (forall ( (A Int) (B Int) (C Int) (D Int) (E Int) (F Int) (G Int) (H Int) (I Int) (J Heap) ) 
    (=>
      (and
        (inv_main74 J I H G F E D C B A)
        (let ((a!1 (ite (and (not (<= B 0)) (>= (HeapSize J) B))
                (select (HeapContents J) B)
                defObj)))
  (not ((_ is O_node) a!1)))
      )
      CHC_COMP_FALSE
    )
  )
)
(assert
  (forall ( (A Int) (B Int) (C Int) (D Int) (E Int) (F Int) (G Int) (H Int) (I Int) (J Heap) ) 
    (=>
      (and
        (inv_main75 J I H G F E D C B A)
        (let ((a!1 (ite (and (not (<= C 0)) (>= (HeapSize J) C))
                (select (HeapContents J) C)
                defObj)))
  (not ((_ is O_node) a!1)))
      )
      CHC_COMP_FALSE
    )
  )
)
(assert
  (forall ( (A Int) (B Int) (C Int) (D Int) (E Int) (F Heap) ) 
    (=>
      (and
        (inv_main76 F E D C B A)
        (let ((a!1 (ite (and (not (<= A 0)) (>= (HeapSize F) A))
                (select (HeapContents F) A)
                defObj)))
  (not ((_ is O_node) a!1)))
      )
      CHC_COMP_FALSE
    )
  )
)
(assert
  (forall ( (A Int) (B Int) (C Int) (D Int) (E Int) (F Heap) ) 
    (=>
      (and
        (inv_main77 F E D C B A)
        (let ((a!1 (ite (and (not (<= A 0)) (>= (HeapSize F) A))
                (select (HeapContents F) A)
                defObj)))
  (not ((_ is O_node) a!1)))
      )
      CHC_COMP_FALSE
    )
  )
)
(assert
  (forall ( (A Int) (B Int) (C Int) (D Int) (E Int) (F Int) (G Heap) ) 
    (=>
      (and
        (inv_main82 G F E D C B A)
        (let ((a!1 (ite (and (not (<= B 0)) (>= (HeapSize G) B))
                (select (HeapContents G) B)
                defObj)))
  (not ((_ is O_node) a!1)))
      )
      CHC_COMP_FALSE
    )
  )
)
(assert
  (forall ( (A Int) (B Int) (C Int) (D Int) (E Int) (F Int) (G Heap) ) 
    (=>
      (and
        (inv_main85 G F E D C B A)
        (let ((a!1 (ite (and (not (<= B 0)) (>= (HeapSize G) B))
                (select (HeapContents G) B)
                defObj)))
  (not ((_ is O_node) a!1)))
      )
      CHC_COMP_FALSE
    )
  )
)
(assert
  (forall ( (A Int) (B Int) (C Int) (D Int) (E Int) (F Int) (G Int) (H Heap) ) 
    (=>
      (and
        (inv_main97 H G F E D C B A)
        (let ((a!1 (ite (and (not (<= A 0)) (>= (HeapSize H) A))
                (select (HeapContents H) A)
                defObj)))
  (not ((_ is O_node) a!1)))
      )
      CHC_COMP_FALSE
    )
  )
)
(assert
  (forall ( (A Int) (B Int) (C Int) (D Int) (E Int) (F Int) (G Int) (H Int) (I Heap) ) 
    (=>
      (and
        (inv_main101 I H G F E D C B A)
        (let ((a!1 (ite (and (not (<= A 0)) (>= (HeapSize I) A))
                (select (HeapContents I) A)
                defObj)))
  (not ((_ is O_node) a!1)))
      )
      CHC_COMP_FALSE
    )
  )
)
(assert
  (forall ( (A Int) (B Int) (C Int) (D Int) (E Int) (F Int) (G Heap) ) 
    (=>
      (and
        (inv_main104 G F E D C B A)
        true
      )
      CHC_COMP_FALSE
    )
  )
)
(assert
  (forall ( (CHC_COMP_UNUSED Bool) ) 
    (=>
      (and
        CHC_COMP_FALSE
      )
      false
    )
  )
)

(check-sat)
(exit)
